unsat
((set-logic NIA)
(declare-fun r!2 () Int)
(declare-fun s!1 () Int)
(declare-fun x!0 () Int)
(proof
(let ((?x1168 (* r!2 r!2)))
 (let ((?x1077 (* 3 ?x1168)))
 (let ((?x277 (* (- 1) s!1)))
 (let ((?x253 (* r00 r00)))
 (let ((?x267 (* (- 3) ?x253)))
 (let ((?x627 (+ s00 ?x267 ?x277 ?x1077)))
 (let (($x1032 (<= ?x627 0)))
 (let (($x1280 (= ?x627 0)))
 (let ((?x812 (* (- 36) (* r!2 r!2 r!2))))
 (let ((?x1213 (* (- 72) ?x1168)))
 (let ((?x1134 (* s!1 s!1)))
 (let ((?x539 (* (- 1) ?x1134)))
 (let ((?x1211 (* (- 45) r!2)))
 (let ((?x977 (* 6 r!2)))
 (let ((?x1387 (+ 3 s!1 ?x977)))
 (let ((?x976 (+ ?x277 x!0)))
 (let ((?x750 (+ 1 r!2)))
 (let ((?x1193 (* (- 6) s!1)))
 (let ((?x748 (+ (- 9) ?x1193 (* (- 1) (* ?x750 ?x976 ?x976 ?x1387 ?x1387)) (* (- 12) (* s!1 r!2 r!2)) ?x1211 ?x539 ?x1213 (* (- 1) (* s!1 s!1 r!2)) ?x812 (* (- 18) (* s!1 r!2)))))
 (let ((?x236 (* ?x748 ?x627)))
 (let (($x238 (= ?x236 0)))
 (let (($x233 (not $x238)))
 (let ((?x1298 (* x00 x00)))
 (let ((?x1305 (* 108 ?x1298)))
 (let ((?x1136 (* s00 s00 s00)))
 (let ((?x961 (* 16 ?x1136)))
 (let ((?x834 (* r00 r00 r00 x00)))
 (let ((?x337 (* (- 432) ?x834)))
 (let ((?x757 (* s00 x00)))
 (let ((?x771 (* (- 108) ?x757)))
 (let ((?x599 (* s00 r00 r00)))
 (let ((?x1245 (* (- 36) ?x599)))
 (let ((?x543 (* s00 s00)))
 (let ((?x1069 (* 51 ?x543)))
 (let ((?x954 (* (- 9) s!1)))
 (let ((?x476 (* r00 r00 s!1)))
 (let ((?x943 (* 36 ?x476)))
 (let ((?x474 (* r00 x00)))
 (let ((?x331 (* 108 ?x474)))
 (let ((?x137 (* 9 s00)))
 (let ((?x316 (+ ?x137 (* (- 54) (* s00 r00)) (* 216 (* s00 r00 x00)) ?x331 ?x943 (* (- 108) (* r00 x!0)) ?x954 ?x1069 ?x1245 (* (- 108) (* s00 s00 r00)) (* (- 36) (* s00 s00 r00 r00)) (* 108 (* s00 x!0)) (* (- 216) (* x00 x!0)) ?x771 ?x337 (* 108 (* x00 s!1)) (* 108 (* x!0 x!0)) (* 216 (* s00 r00 r00 r00)) (* (- 216) (* r00 r00 r00 s!1)) (* (- 108) (* s!1 x!0)) (* 15 ?x1134) ?x961 (* (- 216) (* s00 r00 x!0)) (* (- 12) (* s00 s!1 s!1)) (* 36 (* r00 r00 s!1 s!1)) (* 432 (* r00 r00 r00 x!0)) (* 108 (* s00 r00 s!1)) ?x1305 (* (- 66) (* s00 s!1)) (* 54 (* r00 s!1)) (* (- 4) (* s!1 s!1 s!1)))))
 (let ((?x829 (* r00 r00 x00)))
 (let ((?x679 (* 36 ?x829)))
 (let ((?x1009 (* (- 6) ?x757)))
 (let ((?x685 (* 15 ?x543)))
 (let ((?x1251 (* 54 ?x474)))
 (let ((?x1391 (+ ?x137 (* (- 24) (* s00 r00)) ?x1251 ?x943 (* (- 54) (* r00 x!0)) ?x954 ?x685 ?x1245 (* 2 (* s00 s00 r00)) (* (- 36) (* r00 r00 x!0)) (* 6 (* s00 x!0)) ?x1009 (* (- 36) (* r00 r!2 x!0)) ?x679 (* 6 (* x00 s!1)) (* (- 4) (* r00 s!1 s!1)) (* 4 (* s00 s00 r!2)) (* (- 2) (* s00 s!1 r!2)) (* (- 24) (* s00 r!2)) (* 36 (* r00 x00 r!2)) (* 54 (* x00 r!2)) (* (- 6) (* s!1 x!0)) (* (- 3) ?x1134) (* 2 (* s00 r00 s!1)) (* (- 54) (* r!2 x!0)) (* (- 2) (* s!1 s!1 r!2)) (* (- 12) (* s00 s!1)) (* 24 (* r00 s!1)) (* 24 (* s!1 r!2)))))
 (let ((?x1256 (* 4 ?x543)))
 (let ((?x1485 (* (- 3) s!1)))
 (let ((?x663 (* 18 ?x474)))
 (let ((?x44 (* 3 s00)))
 (let ((?x1295 (+ ?x44 (* (- 9) (* s00 r00)) ?x663 (* 6 ?x476) (* (- 18) (* r00 x!0)) ?x1485 ?x1256 (* (- 6) ?x599) (* (- 6) (* r00 s!1 r!2)) (* (- 9) (* s00 r!2)) (* 6 (* s00 r00 r!2)) (* 18 (* x00 r!2)) (* (- 2) ?x1134) (* (- 18) (* r!2 x!0)) (* (- 2) (* s00 s!1)) (* 9 (* r00 s!1)) (* 9 (* s!1 r!2)))))
 (let ((?x778 (* 6 x!0)))
 (let ((?x1083 (* 3 r!2)))
 (let ((?x421 (* r00 r00 r00)))
 (let ((?x422 (* 12 ?x421)))
 (let ((?x378 (* s00 r00)))
 (let ((?x456 (* (- 6) ?x378)))
 (let ((?x453 (* (- 6) x00)))
 (let ((?x452 (* (- 3) r00)))
 (let ((?x928 (+ ?x44 ?x452 ?x453 ?x456 ?x422 ?x1485 (* (- 12) (* r00 r00 r!2)) (* 4 (* s00 r!2)) ?x1083 ?x778 (* 2 (* s!1 r!2)))))
 (let (($x237 (and $x1280 (= ?x928 0) (= ?x1295 0) (= ?x1391 0) (= ?x316 0) $x233)))
 (let ((?x260 (* (- 1) (* ?x750 ?x976 ?x976 (+ 3 ?x977 s!1) (+ 3 ?x977 s!1)))))
 (let ((?x814 (+ (- 9) ?x1211 ?x1193 ?x1213 (* (- 18) (* r!2 s!1)) ?x539 (* (- 1) (* r!2 s!1 s!1)) ?x260 (* (- 12) (* r!2 r!2 s!1)) ?x812)))
 (let ((?x1328 (* (- 108) ?x1298)))
 (let ((?x1327 (* (- 16) ?x1136)))
 (let ((?x1008 (* s00 r00 r00 r00)))
 (let ((?x1323 (* (- 216) ?x1008)))
 (let ((?x835 (* 432 ?x834)))
 (let ((?x1081 (* 108 ?x757)))
 (let ((?x683 (* s00 s00 r00 r00)))
 (let ((?x684 (* 36 ?x683)))
 (let ((?x620 (* s00 s00 r00)))
 (let ((?x964 (* 108 ?x620)))
 (let ((?x952 (* 36 ?x599)))
 (let ((?x1317 (* (- 51) ?x543)))
 (let ((?x1064 (* s!1 r00 r00)))
 (let ((?x655 (* (- 36) ?x1064)))
 (let ((?x1314 (* (- 108) ?x474)))
 (let ((?x465 (* s00 r00 x00)))
 (let ((?x1313 (* (- 216) ?x465)))
 (let ((?x472 (* 54 ?x378)))
 (let ((?x939 (* (- 9) s00)))
 (let ((?x409 (* 9 s!1)))
 (let ((?x1301 (+ ?x409 ?x939 ?x472 ?x1313 ?x1314 (* (- 15) ?x1134) ?x655 ?x1317 (* (- 108) (* x!0 s00)) (* 108 (* x!0 r00)) (* 216 (* s!1 r00 r00 r00)) ?x952 ?x964 (* 66 (* s!1 s00)) (* (- 54) (* s!1 r00)) (* (- 108) (* s!1 x00)) ?x684 (* (- 108) (* s!1 s00 r00)) (* 4 (* s!1 s!1 s!1)) ?x1081 (* 108 (* s!1 x!0)) (* (- 108) (* x!0 x!0)) ?x835 (* 12 (* s!1 s!1 s00)) ?x1323 (* (- 432) (* x!0 r00 r00 r00)) (* 216 (* x!0 s00 r00)) (* (- 36) (* s!1 s!1 r00 r00)) ?x1327 (* 216 (* x!0 x00)) ?x1328)))
 (let ((?x842 (* (- 36) ?x829)))
 (let ((?x758 (* 6 ?x757)))
 (let ((?x648 (* (- 2) ?x620)))
 (let ((?x868 (* (- 15) ?x543)))
 (let ((?x503 (* (- 54) ?x474)))
 (let ((?x516 (* 24 ?x378)))
 (let ((?x1154 (+ ?x409 ?x939 (* (- 24) (* r!2 s!1)) (* 24 (* r!2 s00)) ?x516 ?x503 (* 3 ?x1134) (* 54 (* r!2 x!0)) (* 36 (* r!2 x!0 r00)) ?x655 ?x868 (* (- 6) (* x!0 s00)) (* 54 (* x!0 r00)) ?x952 (* 4 (* s!1 s!1 r00)) (* (- 54) (* r!2 x00)) ?x648 (* 12 (* s!1 s00)) (* (- 24) (* s!1 r00)) (* (- 6) (* s!1 x00)) (* (- 2) (* s!1 s00 r00)) ?x758 (* 2 (* r!2 s!1 s!1)) (* 6 (* s!1 x!0)) (* (- 4) (* r!2 s00 s00)) ?x842 (* 2 (* r!2 s!1 s00)) (* (- 36) (* r!2 r00 x00)) (* 36 (* x!0 r00 r00)))))
 (let ((?x600 (* 6 ?x599)))
 (let ((?x556 (* (- 4) ?x543)))
 (let ((?x488 (* (- 18) ?x474)))
 (let ((?x493 (* 9 ?x378)))
 (let ((?x330 (* (- 3) s00)))
 (let ((?x407 (+ (* 3 s!1) ?x330 (* (- 9) (* r!2 s!1)) (* 9 (* r!2 s00)) ?x493 ?x488 (* 2 ?x1134) (* 18 (* r!2 x!0)) (* 6 (* r!2 s!1 r00)) (* (- 6) ?x1064) ?x556 (* 18 (* x!0 r00)) ?x600 (* (- 18) (* r!2 x00)) (* 2 (* s!1 s00)) (* (- 9) (* s!1 r00)) (* (- 6) (* r!2 s00 r00)))))
 (let ((?x1222 (+ ?x1083 ?x1485 ?x778 ?x44 ?x452 ?x453 (* 2 (* r!2 s!1)) (* (- 12) (* r!2 r00 r00)) (* 4 (* r!2 s00)) ?x456 ?x422)))
 (let (($x1043 (and (= (+ s!1 (* (- 1) s00) (* (- 3) ?x1168) (* 3 ?x253)) 0) (= ?x1222 0) (= ?x407 0) (= ?x1154 0) (= ?x1301 0) (not (= (* ?x814 (+ ?x277 s00 ?x1077 ?x267)) 0)))))
 (let (($x1230 (exists ((r Int) (s Int) (x Int) )(! (let ((?x253 (* r00 r00)))
 (let ((?x267 (* (- 3) ?x253)))
 (let ((?x241 (* r r)))
 (let ((?x242 (* 3 ?x241)))
 (let ((?x232 (* (- 1) s)))
 (let ((?x211 (* 6 r)))
 (let ((?x1335 (+ 3 ?x211 s)))
 (let ((?x1488 (+ ?x232 x)))
 (let ((?x1368 (+ 1 r)))
 (let ((?x761 (* r s s)))
 (let ((?x1462 (* (- 1) ?x761)))
 (let ((?x497 (* s s)))
 (let ((?x1461 (* (- 1) ?x497)))
 (let ((?x668 (+ (- 9) (* (- 45) r) (* (- 6) s) (* (- 72) ?x241) (* (- 18) (* r s)) ?x1461 ?x1462 (* (- 1) (* ?x1368 ?x1488 ?x1488 ?x1335 ?x1335)) (* (- 12) (* r r s)) (* (- 36) (* r r r)))))
 (let ((?x1298 (* x00 x00)))
 (let ((?x1328 (* (- 108) ?x1298)))
 (let ((?x1136 (* s00 s00 s00)))
 (let ((?x1327 (* (- 16) ?x1136)))
 (let ((?x1008 (* s00 r00 r00 r00)))
 (let ((?x1323 (* (- 216) ?x1008)))
 (let ((?x834 (* r00 r00 r00 x00)))
 (let ((?x835 (* 432 ?x834)))
 (let ((?x757 (* s00 x00)))
 (let ((?x1081 (* 108 ?x757)))
 (let ((?x683 (* s00 s00 r00 r00)))
 (let ((?x684 (* 36 ?x683)))
 (let ((?x620 (* s00 s00 r00)))
 (let ((?x964 (* 108 ?x620)))
 (let ((?x599 (* s00 r00 r00)))
 (let ((?x952 (* 36 ?x599)))
 (let ((?x543 (* s00 s00)))
 (let ((?x1317 (* (- 51) ?x543)))
 (let ((?x517 (* s r00 r00)))
 (let ((?x816 (* (- 36) ?x517)))
 (let ((?x474 (* r00 x00)))
 (let ((?x1314 (* (- 108) ?x474)))
 (let ((?x465 (* s00 r00 x00)))
 (let ((?x1313 (* (- 216) ?x465)))
 (let ((?x378 (* s00 r00)))
 (let ((?x472 (* 54 ?x378)))
 (let ((?x939 (* (- 9) s00)))
 (let ((?x143 (* 9 s)))
 (let ((?x1329 (+ ?x143 ?x939 ?x472 ?x1313 ?x1314 (* (- 15) ?x497) ?x816 ?x1317 (* (- 108) (* x s00)) (* 108 (* x r00)) (* 216 (* s r00 r00 r00)) ?x952 ?x964 (* 66 (* s s00)) (* (- 54) (* s r00)) (* (- 108) (* s x00)) ?x684 (* (- 108) (* s s00 r00)) (* 4 (* s s s)) ?x1081 (* 108 (* s x)) (* (- 108) (* x x)) ?x835 (* 12 (* s s s00)) ?x1323 (* (- 432) (* x r00 r00 r00)) (* 216 (* x s00 r00)) (* (- 36) (* s s r00 r00)) ?x1327 (* 216 (* x x00)) ?x1328)))
 (let (($x1330 (= ?x1329 0)))
 (let ((?x829 (* r00 r00 x00)))
 (let ((?x842 (* (- 36) ?x829)))
 (let ((?x758 (* 6 ?x757)))
 (let ((?x648 (* (- 2) ?x620)))
 (let ((?x868 (* (- 15) ?x543)))
 (let ((?x521 (* 3 ?x497)))
 (let ((?x503 (* (- 54) ?x474)))
 (let ((?x516 (* 24 ?x378)))
 (let ((?x1031 (+ ?x143 ?x939 (* (- 24) (* r s)) (* 24 (* r s00)) ?x516 ?x503 ?x521 (* 54 (* r x)) (* 36 (* r x r00)) ?x816 ?x868 (* (- 6) (* x s00)) (* 54 (* x r00)) ?x952 (* 4 (* s s r00)) (* (- 54) (* r x00)) ?x648 (* 12 (* s s00)) (* (- 24) (* s r00)) (* (- 6) (* s x00)) (* (- 2) (* s s00 r00)) ?x758 (* 2 ?x761) (* 6 (* s x)) (* (- 4) (* r s00 s00)) ?x842 (* 2 (* r s s00)) (* (- 36) (* r r00 x00)) (* 36 (* x r00 r00)))))
 (let (($x1036 (= ?x1031 0)))
 (let ((?x600 (* 6 ?x599)))
 (let ((?x556 (* (- 4) ?x543)))
 (let ((?x498 (* 2 ?x497)))
 (let ((?x488 (* (- 18) ?x474)))
 (let ((?x493 (* 9 ?x378)))
 (let ((?x330 (* (- 3) s00)))
 (let ((?x47 (* 3 s)))
 (let ((?x697 (+ ?x47 ?x330 (* (- 9) (* r s)) (* 9 (* r s00)) ?x493 ?x488 ?x498 (* 18 (* r x)) (* 6 (* r s r00)) (* (- 6) ?x517) ?x556 (* 18 (* x r00)) ?x600 (* (- 18) (* r x00)) (* 2 (* s s00)) (* (- 9) (* s r00)) (* (- 6) (* r s00 r00)))))
 (let (($x704 (= ?x697 0)))
 (let ((?x421 (* r00 r00 r00)))
 (let ((?x422 (* 12 ?x421)))
 (let ((?x456 (* (- 6) ?x378)))
 (let ((?x453 (* (- 6) x00)))
 (let ((?x452 (* (- 3) r00)))
 (let ((?x44 (* 3 s00)))
 (let ((?x56 (* 6 x)))
 (let ((?x451 (* (- 3) s)))
 (let ((?x43 (* 3 r)))
 (let ((?x457 (+ ?x43 ?x451 ?x56 ?x44 ?x452 ?x453 (* 2 (* r s)) (* (- 12) (* r r00 r00)) (* 4 (* r s00)) ?x456 ?x422)))
 (let (($x458 (= ?x457 0)))
 (let (($x286 (= (+ s (* (- 1) s00) (* (- 3) ?x241) (* 3 ?x253)) 0)))
 (and $x286 $x458 $x704 $x1036 $x1330 (not (= (* ?x668 (+ ?x232 s00 ?x242 ?x267)) 0)))))))))))))))))))))))))))))))))))))))))))))))))))))))))))))))))))))))))))))) :qid k!35))
 ))
 (let (($x1292 (exists ((r Int) (s Int) (x Int) )(! (let ((?x253 (* r00 r00)))
 (let ((?x267 (* (- 3) ?x253)))
 (let ((?x232 (* (- 1) s)))
 (let ((?x651 (+ (- 3) s00 ?x232 (* (- 6) r) (* 3 (* (+ 1 r) (+ 1 r))) ?x267)))
 (let ((?x211 (* 6 r)))
 (let ((?x1023 (+ 3 s ?x211)))
 (let ((?x372 (+ x ?x232)))
 (let ((?x1368 (+ 1 r)))
 (let ((?x873 (+ (* (- 1) (* ?x1368 ?x1023 ?x1023)) (* (- 1) (* ?x1368 ?x372 ?x372 ?x1023 ?x1023)))))
 (let (($x671 (not (= (* ?x873 ?x651) 0))))
 (let ((?x1298 (* x00 x00)))
 (let ((?x1305 (* 108 ?x1298)))
 (let ((?x1210 (* (- 9) s)))
 (let ((?x738 (* r00 r00 s00)))
 (let ((?x1172 (* (- 36) ?x738)))
 (let ((?x137 (* 9 s00)))
 (let ((?x543 (* s00 s00)))
 (let ((?x1069 (* 51 ?x543)))
 (let ((?x972 (* r00 r00 s)))
 (let ((?x1361 (* 36 ?x972)))
 (let ((?x1136 (* s00 s00 s00)))
 (let ((?x961 (* 16 ?x1136)))
 (let ((?x757 (* s00 x00)))
 (let ((?x771 (* (- 108) ?x757)))
 (let ((?x834 (* r00 r00 r00 x00)))
 (let ((?x337 (* (- 432) ?x834)))
 (let ((?x474 (* r00 x00)))
 (let ((?x331 (* 108 ?x474)))
 (let ((?x1311 (+ (* 216 (* r00 s00 x00)) ?x331 (* (- 54) (* r00 s00)) (* 15 (* s s)) (* (- 216) (* r00 r00 r00 s)) (* (- 36) (* r00 r00 s00 s00)) (* (- 4) (* s s s)) (* 108 (* x x)) ?x337 (* (- 12) (* s00 s s)) (* 108 (* s00 x)) (* (- 108) (* r00 s00 s00)) (* 216 (* r00 r00 r00 s00)) (* 108 (* x00 s)) (* 432 (* r00 r00 r00 x)) (* (- 66) (* s00 s)) (* 108 (* r00 s00 s)) ?x771 (* (- 216) (* r00 s00 x)) (* 36 (* r00 r00 s s)) ?x961 (* (- 108) (* x s)) ?x1361 ?x1069 (* (- 108) (* r00 x)) ?x137 ?x1172 ?x1210 (* 54 (* r00 s)) (* (- 216) (* x00 x)) ?x1305)))
 (let (($x1334 (= ?x1311 0)))
 (let ((?x685 (* 15 ?x543)))
 (let ((?x829 (* r00 r00 x00)))
 (let ((?x679 (* 36 ?x829)))
 (let ((?x1009 (* (- 6) ?x757)))
 (let ((?x1251 (* 54 ?x474)))
 (let ((?x365 (+ (* 24 (* s r)) ?x1251 (* (- 36) (* r00 x r)) (* (- 24) (* r00 s00)) (* (- 3) (* s s)) (* (- 54) (* x r)) (* 6 (* s00 x)) (* (- 4) (* r00 s s)) (* 2 (* r00 s00 s00)) (* 6 (* x00 s)) (* (- 12) (* s00 s)) (* 2 (* r00 s00 s)) ?x1009 (* (- 2) (* s s r)) (* (- 6) (* x s)) (* 4 (* s00 s00 r)) ?x1361 ?x679 ?x685 (* (- 2) (* s00 s r)) (* 36 (* r00 x00 r)) (* (- 54) (* r00 x)) ?x137 ?x1172 (* 54 (* x00 r)) ?x1210 (* (- 24) (* s00 r)) (* 24 (* r00 s)) (* (- 36) (* r00 r00 x)))))
 (let ((?x451 (* (- 3) s)))
 (let ((?x44 (* 3 s00)))
 (let ((?x1256 (* 4 ?x543)))
 (let ((?x663 (* 18 ?x474)))
 (let ((?x768 (+ (* 9 (* s r)) ?x663 (* (- 9) (* r00 s00)) (* (- 2) (* s s)) (* (- 18) (* x r)) (* (- 6) (* r00 s r)) (* 6 ?x972) ?x1256 (* (- 18) (* r00 x)) ?x44 (* (- 6) ?x738) (* 18 (* x00 r)) ?x451 (* (- 9) (* s00 r)) (* (- 2) (* s00 s)) (* 9 (* r00 s)) (* 6 (* r00 s00 r)))))
 (let ((?x421 (* r00 r00 r00)))
 (let ((?x422 (* 12 ?x421)))
 (let ((?x453 (* (- 6) x00)))
 (let ((?x56 (* 6 x)))
 (let ((?x452 (* (- 3) r00)))
 (let ((?x43 (* 3 r)))
 (let ((?x1243 (+ (* 2 (* s r)) (* (- 12) (* r00 r00 r)) ?x43 ?x44 ?x451 ?x452 (* 4 (* s00 r)) (* (- 6) (* r00 s00)) ?x56 ?x453 ?x422)))
 (let (($x466 (= (+ s00 ?x232 (* 3 (* r r)) ?x267) 0)))
 (and $x466 (= ?x1243 0) (= ?x768 0) (= ?x365 0) $x1334 $x671)))))))))))))))))))))))))))))))))))))))))))))))))) :qid k!35))
 ))
 (let ((?x1231 (lambda ((r Int) (s Int) (x Int) )(let ((?x253 (* r00 r00)))
 (let ((?x267 (* (- 3) ?x253)))
 (let ((?x241 (* r r)))
 (let ((?x242 (* 3 ?x241)))
 (let ((?x232 (* (- 1) s)))
 (let ((?x211 (* 6 r)))
 (let ((?x1335 (+ 3 ?x211 s)))
 (let ((?x1488 (+ ?x232 x)))
 (let ((?x1368 (+ 1 r)))
 (let ((?x761 (* r s s)))
 (let ((?x1462 (* (- 1) ?x761)))
 (let ((?x497 (* s s)))
 (let ((?x1461 (* (- 1) ?x497)))
 (let ((?x668 (+ (- 9) (* (- 45) r) (* (- 6) s) (* (- 72) ?x241) (* (- 18) (* r s)) ?x1461 ?x1462 (* (- 1) (* ?x1368 ?x1488 ?x1488 ?x1335 ?x1335)) (* (- 12) (* r r s)) (* (- 36) (* r r r)))))
 (let ((?x1298 (* x00 x00)))
 (let ((?x1328 (* (- 108) ?x1298)))
 (let ((?x1136 (* s00 s00 s00)))
 (let ((?x1327 (* (- 16) ?x1136)))
 (let ((?x1008 (* s00 r00 r00 r00)))
 (let ((?x1323 (* (- 216) ?x1008)))
 (let ((?x834 (* r00 r00 r00 x00)))
 (let ((?x835 (* 432 ?x834)))
 (let ((?x757 (* s00 x00)))
 (let ((?x1081 (* 108 ?x757)))
 (let ((?x683 (* s00 s00 r00 r00)))
 (let ((?x684 (* 36 ?x683)))
 (let ((?x620 (* s00 s00 r00)))
 (let ((?x964 (* 108 ?x620)))
 (let ((?x599 (* s00 r00 r00)))
 (let ((?x952 (* 36 ?x599)))
 (let ((?x543 (* s00 s00)))
 (let ((?x1317 (* (- 51) ?x543)))
 (let ((?x517 (* s r00 r00)))
 (let ((?x816 (* (- 36) ?x517)))
 (let ((?x474 (* r00 x00)))
 (let ((?x1314 (* (- 108) ?x474)))
 (let ((?x465 (* s00 r00 x00)))
 (let ((?x1313 (* (- 216) ?x465)))
 (let ((?x378 (* s00 r00)))
 (let ((?x472 (* 54 ?x378)))
 (let ((?x939 (* (- 9) s00)))
 (let ((?x143 (* 9 s)))
 (let ((?x1329 (+ ?x143 ?x939 ?x472 ?x1313 ?x1314 (* (- 15) ?x497) ?x816 ?x1317 (* (- 108) (* x s00)) (* 108 (* x r00)) (* 216 (* s r00 r00 r00)) ?x952 ?x964 (* 66 (* s s00)) (* (- 54) (* s r00)) (* (- 108) (* s x00)) ?x684 (* (- 108) (* s s00 r00)) (* 4 (* s s s)) ?x1081 (* 108 (* s x)) (* (- 108) (* x x)) ?x835 (* 12 (* s s s00)) ?x1323 (* (- 432) (* x r00 r00 r00)) (* 216 (* x s00 r00)) (* (- 36) (* s s r00 r00)) ?x1327 (* 216 (* x x00)) ?x1328)))
 (let (($x1330 (= ?x1329 0)))
 (let ((?x829 (* r00 r00 x00)))
 (let ((?x842 (* (- 36) ?x829)))
 (let ((?x758 (* 6 ?x757)))
 (let ((?x648 (* (- 2) ?x620)))
 (let ((?x868 (* (- 15) ?x543)))
 (let ((?x521 (* 3 ?x497)))
 (let ((?x503 (* (- 54) ?x474)))
 (let ((?x516 (* 24 ?x378)))
 (let ((?x1031 (+ ?x143 ?x939 (* (- 24) (* r s)) (* 24 (* r s00)) ?x516 ?x503 ?x521 (* 54 (* r x)) (* 36 (* r x r00)) ?x816 ?x868 (* (- 6) (* x s00)) (* 54 (* x r00)) ?x952 (* 4 (* s s r00)) (* (- 54) (* r x00)) ?x648 (* 12 (* s s00)) (* (- 24) (* s r00)) (* (- 6) (* s x00)) (* (- 2) (* s s00 r00)) ?x758 (* 2 ?x761) (* 6 (* s x)) (* (- 4) (* r s00 s00)) ?x842 (* 2 (* r s s00)) (* (- 36) (* r r00 x00)) (* 36 (* x r00 r00)))))
 (let (($x1036 (= ?x1031 0)))
 (let ((?x600 (* 6 ?x599)))
 (let ((?x556 (* (- 4) ?x543)))
 (let ((?x498 (* 2 ?x497)))
 (let ((?x488 (* (- 18) ?x474)))
 (let ((?x493 (* 9 ?x378)))
 (let ((?x330 (* (- 3) s00)))
 (let ((?x47 (* 3 s)))
 (let ((?x697 (+ ?x47 ?x330 (* (- 9) (* r s)) (* 9 (* r s00)) ?x493 ?x488 ?x498 (* 18 (* r x)) (* 6 (* r s r00)) (* (- 6) ?x517) ?x556 (* 18 (* x r00)) ?x600 (* (- 18) (* r x00)) (* 2 (* s s00)) (* (- 9) (* s r00)) (* (- 6) (* r s00 r00)))))
 (let (($x704 (= ?x697 0)))
 (let ((?x421 (* r00 r00 r00)))
 (let ((?x422 (* 12 ?x421)))
 (let ((?x456 (* (- 6) ?x378)))
 (let ((?x453 (* (- 6) x00)))
 (let ((?x452 (* (- 3) r00)))
 (let ((?x44 (* 3 s00)))
 (let ((?x56 (* 6 x)))
 (let ((?x451 (* (- 3) s)))
 (let ((?x43 (* 3 r)))
 (let ((?x457 (+ ?x43 ?x451 ?x56 ?x44 ?x452 ?x453 (* 2 (* r s)) (* (- 12) (* r r00 r00)) (* 4 (* r s00)) ?x456 ?x422)))
 (let (($x458 (= ?x457 0)))
 (let (($x286 (= (+ s (* (- 1) s00) (* (- 3) ?x241) (* 3 ?x253)) 0)))
 (let (($x1065 (and $x286 $x458 $x704 $x1036 $x1330 (not (= (* ?x668 (+ ?x232 s00 ?x242 ?x267)) 0)))))
 (let ((?x1023 (+ 3 s ?x211)))
 (let ((?x372 (+ x ?x232)))
 (let ((?x873 (+ (* (- 1) (* ?x1368 ?x1023 ?x1023)) (* (- 1) (* ?x1368 ?x372 ?x372 ?x1023 ?x1023)))))
 (let ((?x1101 (* ?x873 (+ (- 3) s00 ?x232 (* (- 6) r) (* 3 (* ?x1368 ?x1368)) ?x267))))
 (let (($x671 (not (= ?x1101 0))))
 (let ((?x1305 (* 108 ?x1298)))
 (let ((?x1210 (* (- 9) s)))
 (let ((?x738 (* r00 r00 s00)))
 (let ((?x1172 (* (- 36) ?x738)))
 (let ((?x137 (* 9 s00)))
 (let ((?x1069 (* 51 ?x543)))
 (let ((?x972 (* r00 r00 s)))
 (let ((?x1361 (* 36 ?x972)))
 (let ((?x961 (* 16 ?x1136)))
 (let ((?x771 (* (- 108) ?x757)))
 (let ((?x337 (* (- 432) ?x834)))
 (let ((?x331 (* 108 ?x474)))
 (let ((?x1311 (+ (* 216 (* r00 s00 x00)) ?x331 (* (- 54) (* r00 s00)) (* 15 ?x497) (* (- 216) (* r00 r00 r00 s)) (* (- 36) (* r00 r00 s00 s00)) (* (- 4) (* s s s)) (* 108 (* x x)) ?x337 (* (- 12) (* s00 s s)) (* 108 (* s00 x)) (* (- 108) (* r00 s00 s00)) (* 216 (* r00 r00 r00 s00)) (* 108 (* x00 s)) (* 432 (* r00 r00 r00 x)) (* (- 66) (* s00 s)) (* 108 (* r00 s00 s)) ?x771 (* (- 216) (* r00 s00 x)) (* 36 (* r00 r00 s s)) ?x961 (* (- 108) (* x s)) ?x1361 ?x1069 (* (- 108) (* r00 x)) ?x137 ?x1172 ?x1210 (* 54 (* r00 s)) (* (- 216) (* x00 x)) ?x1305)))
 (let (($x1334 (= ?x1311 0)))
 (let ((?x685 (* 15 ?x543)))
 (let ((?x679 (* 36 ?x829)))
 (let ((?x1009 (* (- 6) ?x757)))
 (let ((?x1251 (* 54 ?x474)))
 (let ((?x365 (+ (* 24 (* s r)) ?x1251 (* (- 36) (* r00 x r)) (* (- 24) (* r00 s00)) (* (- 3) ?x497) (* (- 54) (* x r)) (* 6 (* s00 x)) (* (- 4) (* r00 s s)) (* 2 (* r00 s00 s00)) (* 6 (* x00 s)) (* (- 12) (* s00 s)) (* 2 (* r00 s00 s)) ?x1009 (* (- 2) (* s s r)) (* (- 6) (* x s)) (* 4 (* s00 s00 r)) ?x1361 ?x679 ?x685 (* (- 2) (* s00 s r)) (* 36 (* r00 x00 r)) (* (- 54) (* r00 x)) ?x137 ?x1172 (* 54 (* x00 r)) ?x1210 (* (- 24) (* s00 r)) (* 24 (* r00 s)) (* (- 36) (* r00 r00 x)))))
 (let ((?x1256 (* 4 ?x543)))
 (let ((?x663 (* 18 ?x474)))
 (let ((?x768 (+ (* 9 (* s r)) ?x663 (* (- 9) (* r00 s00)) (* (- 2) ?x497) (* (- 18) (* x r)) (* (- 6) (* r00 s r)) (* 6 ?x972) ?x1256 (* (- 18) (* r00 x)) ?x44 (* (- 6) ?x738) (* 18 (* x00 r)) ?x451 (* (- 9) (* s00 r)) (* (- 2) (* s00 s)) (* 9 (* r00 s)) (* 6 (* r00 s00 r)))))
 (let ((?x1243 (+ (* 2 (* s r)) (* (- 12) (* r00 r00 r)) ?x43 ?x44 ?x451 ?x452 (* 4 (* s00 r)) (* (- 6) (* r00 s00)) ?x56 ?x453 ?x422)))
 (let (($x466 (= (+ s00 ?x232 ?x242 ?x267) 0)))
 (let (($x428 (and $x466 (= ?x1243 0) (= ?x768 0) (= ?x365 0) $x1334 $x671)))
 (rewrite (= $x428 $x1065)))))))))))))))))))))))))))))))))))))))))))))))))))))))))))))))))))))))))))))))))))))))))))))))))))))))))))))
 ))
 (let (($x695 (exists ((r Int) (s Int) (x Int) )(! (let ((?x253 (* r00 r00)))
 (let ((?x267 (* (- 3) ?x253)))
 (let ((?x232 (* (- 1) s)))
 (let ((?x651 (+ (- 3) s00 ?x232 (* (- 6) r) (* 3 (* (+ 1 r) (+ 1 r))) ?x267)))
 (let ((?x211 (* 6 r)))
 (let ((?x1023 (+ 3 s ?x211)))
 (let ((?x372 (+ x ?x232)))
 (let ((?x1368 (+ 1 r)))
 (let ((?x873 (+ (* (- 1) (* ?x1368 ?x1023 ?x1023)) (* (- 1) (* ?x1368 ?x372 ?x372 ?x1023 ?x1023)))))
 (let (($x671 (not (= (* ?x873 ?x651) 0))))
 (let ((?x1298 (* x00 x00)))
 (let ((?x1305 (* 108 ?x1298)))
 (let ((?x1210 (* (- 9) s)))
 (let ((?x738 (* r00 r00 s00)))
 (let ((?x1172 (* (- 36) ?x738)))
 (let ((?x137 (* 9 s00)))
 (let ((?x543 (* s00 s00)))
 (let ((?x1069 (* 51 ?x543)))
 (let ((?x972 (* r00 r00 s)))
 (let ((?x1361 (* 36 ?x972)))
 (let ((?x1136 (* s00 s00 s00)))
 (let ((?x961 (* 16 ?x1136)))
 (let ((?x757 (* s00 x00)))
 (let ((?x771 (* (- 108) ?x757)))
 (let ((?x834 (* r00 r00 r00 x00)))
 (let ((?x337 (* (- 432) ?x834)))
 (let ((?x474 (* r00 x00)))
 (let ((?x331 (* 108 ?x474)))
 (let ((?x1311 (+ (* 216 (* r00 s00 x00)) ?x331 (* (- 54) (* r00 s00)) (* 15 (* s s)) (* (- 216) (* r00 r00 r00 s)) (* (- 36) (* r00 r00 s00 s00)) (* (- 4) (* s s s)) (* 108 (* x x)) ?x337 (* (- 12) (* s00 s s)) (* 108 (* s00 x)) (* (- 108) (* r00 s00 s00)) (* 216 (* r00 r00 r00 s00)) (* 108 (* x00 s)) (* 432 (* r00 r00 r00 x)) (* (- 66) (* s00 s)) (* 108 (* r00 s00 s)) ?x771 (* (- 216) (* r00 s00 x)) (* 36 (* r00 r00 s s)) ?x961 (* (- 108) (* x s)) ?x1361 ?x1069 (* (- 108) (* r00 x)) ?x137 ?x1172 ?x1210 (* 54 (* r00 s)) (* (- 216) (* x00 x)) ?x1305)))
 (let (($x1334 (= ?x1311 0)))
 (let ((?x143 (* 9 s)))
 (let ((?x939 (* (- 9) s00)))
 (let ((?x868 (* (- 15) ?x543)))
 (let ((?x829 (* r00 r00 x00)))
 (let ((?x842 (* (- 36) ?x829)))
 (let ((?x758 (* 6 ?x757)))
 (let ((?x497 (* s s)))
 (let ((?x521 (* 3 ?x497)))
 (let ((?x503 (* (- 54) ?x474)))
 (let ((?x1465 (+ (* (- 24) (* s r)) ?x503 (* 36 (* r00 x r)) (* 24 (* r00 s00)) ?x521 (* 54 (* x r)) (* (- 6) (* s00 x)) (* 4 (* r00 s s)) (* (- 2) (* r00 s00 s00)) (* (- 6) (* x00 s)) (* 12 (* s00 s)) (* (- 2) (* r00 s00 s)) ?x758 (* 2 (* s s r)) (* 6 (* x s)) (* (- 4) (* s00 s00 r)) (* (- 36) ?x972) ?x842 ?x868 (* 2 (* s00 s r)) (* (- 36) (* r00 x00 r)) (* 54 (* r00 x)) ?x939 (* 36 ?x738) (* (- 54) (* x00 r)) ?x143 (* 24 (* s00 r)) (* (- 24) (* r00 s)) (* 36 (* r00 r00 x)))))
 (let ((?x47 (* 3 s)))
 (let ((?x330 (* (- 3) s00)))
 (let ((?x556 (* (- 4) ?x543)))
 (let ((?x498 (* 2 ?x497)))
 (let ((?x488 (* (- 18) ?x474)))
 (let ((?x776 (+ (* (- 9) (* s r)) ?x488 (* 9 (* r00 s00)) ?x498 (* 18 (* x r)) (* 6 (* r00 s r)) (* (- 6) ?x972) ?x556 (* 18 (* r00 x)) ?x330 (* 6 ?x738) (* (- 18) (* x00 r)) ?x47 (* 9 (* s00 r)) (* 2 (* s00 s)) (* (- 9) (* r00 s)) (* (- 6) (* r00 s00 r)))))
 (let ((?x59 (* 6 x00)))
 (let ((?x48 (* 3 r00)))
 (let ((?x301 (* (- 3) r)))
 (let ((?x436 (+ (* (- 2) (* s r)) (* 12 (* r00 r00 r)) ?x301 ?x330 ?x47 ?x48 (* (- 4) (* s00 r)) (* 6 (* r00 s00)) (* (- 6) x) ?x59 (* (- 12) (* r00 r00 r00)))))
 (let (($x466 (= (+ s00 ?x232 (* 3 (* r r)) ?x267) 0)))
 (and $x466 (= ?x436 0) (= ?x776 0) (= ?x1465 0) $x1334 $x671)))))))))))))))))))))))))))))))))))))))))))))))))))) :qid k!35))
 ))
 (let ((?x416 (lambda ((r Int) (s Int) (x Int) )(let ((?x253 (* r00 r00)))
 (let ((?x267 (* (- 3) ?x253)))
 (let ((?x232 (* (- 1) s)))
 (let ((?x651 (+ (- 3) s00 ?x232 (* (- 6) r) (* 3 (* (+ 1 r) (+ 1 r))) ?x267)))
 (let ((?x211 (* 6 r)))
 (let ((?x1023 (+ 3 s ?x211)))
 (let ((?x372 (+ x ?x232)))
 (let ((?x1368 (+ 1 r)))
 (let ((?x873 (+ (* (- 1) (* ?x1368 ?x1023 ?x1023)) (* (- 1) (* ?x1368 ?x372 ?x372 ?x1023 ?x1023)))))
 (let (($x671 (not (= (* ?x873 ?x651) 0))))
 (let ((?x1298 (* x00 x00)))
 (let ((?x1305 (* 108 ?x1298)))
 (let ((?x1210 (* (- 9) s)))
 (let ((?x738 (* r00 r00 s00)))
 (let ((?x1172 (* (- 36) ?x738)))
 (let ((?x137 (* 9 s00)))
 (let ((?x543 (* s00 s00)))
 (let ((?x1069 (* 51 ?x543)))
 (let ((?x972 (* r00 r00 s)))
 (let ((?x1361 (* 36 ?x972)))
 (let ((?x1136 (* s00 s00 s00)))
 (let ((?x961 (* 16 ?x1136)))
 (let ((?x757 (* s00 x00)))
 (let ((?x771 (* (- 108) ?x757)))
 (let ((?x834 (* r00 r00 r00 x00)))
 (let ((?x337 (* (- 432) ?x834)))
 (let ((?x474 (* r00 x00)))
 (let ((?x331 (* 108 ?x474)))
 (let ((?x1311 (+ (* 216 (* r00 s00 x00)) ?x331 (* (- 54) (* r00 s00)) (* 15 (* s s)) (* (- 216) (* r00 r00 r00 s)) (* (- 36) (* r00 r00 s00 s00)) (* (- 4) (* s s s)) (* 108 (* x x)) ?x337 (* (- 12) (* s00 s s)) (* 108 (* s00 x)) (* (- 108) (* r00 s00 s00)) (* 216 (* r00 r00 r00 s00)) (* 108 (* x00 s)) (* 432 (* r00 r00 r00 x)) (* (- 66) (* s00 s)) (* 108 (* r00 s00 s)) ?x771 (* (- 216) (* r00 s00 x)) (* 36 (* r00 r00 s s)) ?x961 (* (- 108) (* x s)) ?x1361 ?x1069 (* (- 108) (* r00 x)) ?x137 ?x1172 ?x1210 (* 54 (* r00 s)) (* (- 216) (* x00 x)) ?x1305)))
 (let (($x1334 (= ?x1311 0)))
 (let ((?x685 (* 15 ?x543)))
 (let ((?x829 (* r00 r00 x00)))
 (let ((?x679 (* 36 ?x829)))
 (let ((?x1009 (* (- 6) ?x757)))
 (let ((?x1251 (* 54 ?x474)))
 (let ((?x365 (+ (* 24 (* s r)) ?x1251 (* (- 36) (* r00 x r)) (* (- 24) (* r00 s00)) (* (- 3) (* s s)) (* (- 54) (* x r)) (* 6 (* s00 x)) (* (- 4) (* r00 s s)) (* 2 (* r00 s00 s00)) (* 6 (* x00 s)) (* (- 12) (* s00 s)) (* 2 (* r00 s00 s)) ?x1009 (* (- 2) (* s s r)) (* (- 6) (* x s)) (* 4 (* s00 s00 r)) ?x1361 ?x679 ?x685 (* (- 2) (* s00 s r)) (* 36 (* r00 x00 r)) (* (- 54) (* r00 x)) ?x137 ?x1172 (* 54 (* x00 r)) ?x1210 (* (- 24) (* s00 r)) (* 24 (* r00 s)) (* (- 36) (* r00 r00 x)))))
 (let ((?x451 (* (- 3) s)))
 (let ((?x44 (* 3 s00)))
 (let ((?x1256 (* 4 ?x543)))
 (let ((?x663 (* 18 ?x474)))
 (let ((?x768 (+ (* 9 (* s r)) ?x663 (* (- 9) (* r00 s00)) (* (- 2) (* s s)) (* (- 18) (* x r)) (* (- 6) (* r00 s r)) (* 6 ?x972) ?x1256 (* (- 18) (* r00 x)) ?x44 (* (- 6) ?x738) (* 18 (* x00 r)) ?x451 (* (- 9) (* s00 r)) (* (- 2) (* s00 s)) (* 9 (* r00 s)) (* 6 (* r00 s00 r)))))
 (let ((?x421 (* r00 r00 r00)))
 (let ((?x422 (* 12 ?x421)))
 (let ((?x453 (* (- 6) x00)))
 (let ((?x56 (* 6 x)))
 (let ((?x452 (* (- 3) r00)))
 (let ((?x43 (* 3 r)))
 (let ((?x1243 (+ (* 2 (* s r)) (* (- 12) (* r00 r00 r)) ?x43 ?x44 ?x451 ?x452 (* 4 (* s00 r)) (* (- 6) (* r00 s00)) ?x56 ?x453 ?x422)))
 (let (($x466 (= (+ s00 ?x232 (* 3 (* r r)) ?x267) 0)))
 (let (($x428 (and $x466 (= ?x1243 0) (= ?x768 0) (= ?x365 0) $x1334 $x671)))
 (let ((?x143 (* 9 s)))
 (let ((?x939 (* (- 9) s00)))
 (let ((?x868 (* (- 15) ?x543)))
 (let ((?x842 (* (- 36) ?x829)))
 (let ((?x758 (* 6 ?x757)))
 (let ((?x497 (* s s)))
 (let ((?x521 (* 3 ?x497)))
 (let ((?x503 (* (- 54) ?x474)))
 (let ((?x1465 (+ (* (- 24) (* s r)) ?x503 (* 36 (* r00 x r)) (* 24 (* r00 s00)) ?x521 (* 54 (* x r)) (* (- 6) (* s00 x)) (* 4 (* r00 s s)) (* (- 2) (* r00 s00 s00)) (* (- 6) (* x00 s)) (* 12 (* s00 s)) (* (- 2) (* r00 s00 s)) ?x758 (* 2 (* s s r)) (* 6 (* x s)) (* (- 4) (* s00 s00 r)) (* (- 36) ?x972) ?x842 ?x868 (* 2 (* s00 s r)) (* (- 36) (* r00 x00 r)) (* 54 (* r00 x)) ?x939 (* 36 ?x738) (* (- 54) (* x00 r)) ?x143 (* 24 (* s00 r)) (* (- 24) (* r00 s)) (* 36 (* r00 r00 x)))))
 (let ((?x47 (* 3 s)))
 (let ((?x330 (* (- 3) s00)))
 (let ((?x556 (* (- 4) ?x543)))
 (let ((?x498 (* 2 ?x497)))
 (let ((?x488 (* (- 18) ?x474)))
 (let ((?x776 (+ (* (- 9) (* s r)) ?x488 (* 9 (* r00 s00)) ?x498 (* 18 (* x r)) (* 6 (* r00 s r)) (* (- 6) ?x972) ?x556 (* 18 (* r00 x)) ?x330 (* 6 ?x738) (* (- 18) (* x00 r)) ?x47 (* 9 (* s00 r)) (* 2 (* s00 s)) (* (- 9) (* r00 s)) (* (- 6) (* r00 s00 r)))))
 (let ((?x59 (* 6 x00)))
 (let ((?x48 (* 3 r00)))
 (let ((?x301 (* (- 3) r)))
 (let ((?x436 (+ (* (- 2) (* s r)) (* 12 (* r00 r00 r)) ?x301 ?x330 ?x47 ?x48 (* (- 4) (* s00 r)) (* 6 (* r00 s00)) (* (- 6) x) ?x59 (* (- 12) ?x421))))
 (let (($x1415 (and $x466 (= ?x436 0) (= ?x776 0) (= ?x1465 0) $x1334 $x671)))
 (rewrite (= $x1415 $x428)))))))))))))))))))))))))))))))))))))))))))))))))))))))))))))))))))))))))
 ))
 (let (($x229 (exists ((r Int) (s Int) (x Int) )(! (let ((?x221 (- x s)))
 (let ((?x211 (* 6 r)))
 (let ((?x212 (+ s ?x211 3)))
 (let ((?x215 (+ r 1)))
 (let ((?x224 (* (- (+ (- s00 ?x212) (* 3 ?x215 ?x215)) (* 3 r00 r00)) (- (* (- 1) ?x215 ?x212 ?x212) (* ?x215 ?x212 ?x212 ?x221 ?x221)))))
 (let ((?x143 (* 9 s)))
 (let ((?x139 (* 36 r00 r00 s00)))
 (let ((?x137 (* 9 s00)))
 (let ((?x123 (* 36 r00 r00 s)))
 (let ((?x157 (- (+ (* 216 r00 s00 x00) (* 108 r00 x00)) (* 54 r00 s00))))
 (let ((?x164 (- (- (+ ?x157 (* 15 s s)) (* 216 r00 r00 r00 s)) (* 36 r00 r00 s00 s00))))
 (let ((?x171 (- (+ (- ?x164 (* 4 s s s)) (* 108 x x)) (* 432 r00 r00 r00 x00))))
 (let ((?x176 (- (+ (- ?x171 (* 12 s s s00)) (* 108 s00 x)) (* 108 r00 s00 s00))))
 (let ((?x180 (+ ?x176 (* 216 r00 r00 r00 s00) (* 108 s x00) (* 432 r00 r00 r00 x))))
 (let ((?x188 (- (+ (- ?x180 (* 66 s s00)) (* 108 r00 s s00)) (* 108 s00 x00))))
 (let ((?x193 (+ (- ?x188 (* 216 r00 s00 x)) (* 36 r00 r00 s s) (* 16 s00 s00 s00))))
 (let ((?x200 (- (+ (- ?x193 (* 108 s x)) ?x123 (* 51 s00 s00)) (* 108 r00 x))))
 (let ((?x207 (- (+ (- (- (+ ?x200 ?x137) ?x139) ?x143) (* 54 r00 s)) (* 216 x x00))))
 (let ((?x105 (+ (- (* (- 24) r s) (* 54 r00 x00)) (* 36 r r00 x) (* 24 r00 s00) (* 3 s s) (* 54 r x))))
 (let ((?x112 (- (+ (- ?x105 (* 6 s00 x)) (* 4 r00 s s)) (* 2 r00 s00 s00))))
 (let ((?x117 (- (+ (- ?x112 (* 6 s x00)) (* 12 s s00)) (* 2 r00 s s00))))
 (let ((?x121 (+ ?x117 (* 6 s00 x00) (* 2 r s s) (* 6 s x))))
 (let ((?x129 (- (- (- ?x121 (* 4 r s00 s00)) ?x123) (* 36 r00 r00 x00))))
 (let ((?x134 (- (+ (- ?x129 (* 15 s00 s00)) (* 2 r s s00)) (* 36 r r00 x00))))
 (let ((?x142 (- (+ (- (+ ?x134 (* 54 r00 x)) ?x137) ?x139) (* 54 r x00))))
 (let ((?x149 (+ (- (+ ?x142 ?x143 (* 24 r s00)) (* 24 r00 s)) (* 36 r00 r00 x))))
 (let ((?x47 (* 3 s)))
 (let ((?x44 (* 3 s00)))
 (let ((?x74 (+ (- (* (- 9) r s) (* 18 r00 x00)) (* 9 r00 s00) (* 2 s s) (* 18 r x) (* 6 r r00 s))))
 (let ((?x80 (+ (- (- ?x74 (* 6 r00 r00 s)) (* 4 s00 s00)) (* 18 r00 x))))
 (let ((?x85 (- (+ (- ?x80 ?x44) (* 6 r00 r00 s00)) (* 18 r x00))))
 (let ((?x91 (- (+ ?x85 ?x47 (* 9 r s00) (* 2 s s00)) (* 9 r00 s))))
 (let ((?x59 (* 6 x00)))
 (let ((?x56 (* 6 x)))
 (let ((?x48 (* 3 r00)))
 (let ((?x43 (* 3 r)))
 (let ((?x46 (- (- (+ (* (- 2) r s) (* 12 r r00 r00)) ?x43) ?x44)))
 (let ((?x55 (+ (- (+ ?x46 ?x47 ?x48) (* 4 r s00)) (* 6 r00 s00))))
 (let (($x36 (= (- (+ (- s00 s) (* 3 r r)) (* 3 r00 r00)) 0)))
 (and $x36 (= (- (+ (- ?x55 ?x56) ?x59) (* 12 r00 r00 r00)) 0) (= (- ?x91 (* 6 r r00 s00)) 0) (= ?x149 0) (= (+ ?x207 (* 108 x00 x00)) 0) (or (not (= ?x224 0))))))))))))))))))))))))))))))))))))))))))) :qid k!35))
 ))
 (let ((?x940 (lambda ((r Int) (s Int) (x Int) )(let ((?x253 (* r00 r00)))
 (let ((?x267 (* (- 3) ?x253)))
 (let ((?x232 (* (- 1) s)))
 (let ((?x651 (+ (- 3) s00 ?x232 (* (- 6) r) (* 3 (* (+ 1 r) (+ 1 r))) ?x267)))
 (let ((?x211 (* 6 r)))
 (let ((?x1023 (+ 3 s ?x211)))
 (let ((?x372 (+ x ?x232)))
 (let ((?x1368 (+ 1 r)))
 (let ((?x873 (+ (* (- 1) (* ?x1368 ?x1023 ?x1023)) (* (- 1) (* ?x1368 ?x372 ?x372 ?x1023 ?x1023)))))
 (let (($x671 (not (= (* ?x873 ?x651) 0))))
 (let ((?x1298 (* x00 x00)))
 (let ((?x1305 (* 108 ?x1298)))
 (let ((?x1210 (* (- 9) s)))
 (let ((?x738 (* r00 r00 s00)))
 (let ((?x1172 (* (- 36) ?x738)))
 (let ((?x137 (* 9 s00)))
 (let ((?x543 (* s00 s00)))
 (let ((?x1069 (* 51 ?x543)))
 (let ((?x972 (* r00 r00 s)))
 (let ((?x1361 (* 36 ?x972)))
 (let ((?x1136 (* s00 s00 s00)))
 (let ((?x961 (* 16 ?x1136)))
 (let ((?x757 (* s00 x00)))
 (let ((?x771 (* (- 108) ?x757)))
 (let ((?x834 (* r00 r00 r00 x00)))
 (let ((?x337 (* (- 432) ?x834)))
 (let ((?x474 (* r00 x00)))
 (let ((?x331 (* 108 ?x474)))
 (let ((?x1311 (+ (* 216 (* r00 s00 x00)) ?x331 (* (- 54) (* r00 s00)) (* 15 (* s s)) (* (- 216) (* r00 r00 r00 s)) (* (- 36) (* r00 r00 s00 s00)) (* (- 4) (* s s s)) (* 108 (* x x)) ?x337 (* (- 12) (* s00 s s)) (* 108 (* s00 x)) (* (- 108) (* r00 s00 s00)) (* 216 (* r00 r00 r00 s00)) (* 108 (* x00 s)) (* 432 (* r00 r00 r00 x)) (* (- 66) (* s00 s)) (* 108 (* r00 s00 s)) ?x771 (* (- 216) (* r00 s00 x)) (* 36 (* r00 r00 s s)) ?x961 (* (- 108) (* x s)) ?x1361 ?x1069 (* (- 108) (* r00 x)) ?x137 ?x1172 ?x1210 (* 54 (* r00 s)) (* (- 216) (* x00 x)) ?x1305)))
 (let (($x1334 (= ?x1311 0)))
 (let ((?x143 (* 9 s)))
 (let ((?x939 (* (- 9) s00)))
 (let ((?x868 (* (- 15) ?x543)))
 (let ((?x829 (* r00 r00 x00)))
 (let ((?x842 (* (- 36) ?x829)))
 (let ((?x758 (* 6 ?x757)))
 (let ((?x497 (* s s)))
 (let ((?x521 (* 3 ?x497)))
 (let ((?x503 (* (- 54) ?x474)))
 (let ((?x1465 (+ (* (- 24) (* s r)) ?x503 (* 36 (* r00 x r)) (* 24 (* r00 s00)) ?x521 (* 54 (* x r)) (* (- 6) (* s00 x)) (* 4 (* r00 s s)) (* (- 2) (* r00 s00 s00)) (* (- 6) (* x00 s)) (* 12 (* s00 s)) (* (- 2) (* r00 s00 s)) ?x758 (* 2 (* s s r)) (* 6 (* x s)) (* (- 4) (* s00 s00 r)) (* (- 36) ?x972) ?x842 ?x868 (* 2 (* s00 s r)) (* (- 36) (* r00 x00 r)) (* 54 (* r00 x)) ?x939 (* 36 ?x738) (* (- 54) (* x00 r)) ?x143 (* 24 (* s00 r)) (* (- 24) (* r00 s)) (* 36 (* r00 r00 x)))))
 (let ((?x47 (* 3 s)))
 (let ((?x330 (* (- 3) s00)))
 (let ((?x556 (* (- 4) ?x543)))
 (let ((?x498 (* 2 ?x497)))
 (let ((?x488 (* (- 18) ?x474)))
 (let ((?x776 (+ (* (- 9) (* s r)) ?x488 (* 9 (* r00 s00)) ?x498 (* 18 (* x r)) (* 6 (* r00 s r)) (* (- 6) ?x972) ?x556 (* 18 (* r00 x)) ?x330 (* 6 ?x738) (* (- 18) (* x00 r)) ?x47 (* 9 (* s00 r)) (* 2 (* s00 s)) (* (- 9) (* r00 s)) (* (- 6) (* r00 s00 r)))))
 (let ((?x59 (* 6 x00)))
 (let ((?x48 (* 3 r00)))
 (let ((?x301 (* (- 3) r)))
 (let ((?x436 (+ (* (- 2) (* s r)) (* 12 (* r00 r00 r)) ?x301 ?x330 ?x47 ?x48 (* (- 4) (* s00 r)) (* 6 (* r00 s00)) (* (- 6) x) ?x59 (* (- 12) (* r00 r00 r00)))))
 (let (($x466 (= (+ s00 ?x232 (* 3 (* r r)) ?x267) 0)))
 (let (($x1415 (and $x466 (= ?x436 0) (= ?x776 0) (= ?x1465 0) $x1334 $x671)))
 (let ((?x221 (- x s)))
 (let ((?x212 (+ s ?x211 3)))
 (let ((?x215 (+ r 1)))
 (let ((?x224 (* (- (+ (- s00 ?x212) (* 3 ?x215 ?x215)) (* 3 r00 r00)) (- (* (- 1) ?x215 ?x212 ?x212) (* ?x215 ?x212 ?x212 ?x221 ?x221)))))
 (let ((?x139 (* 36 r00 r00 s00)))
 (let ((?x123 (* 36 r00 r00 s)))
 (let ((?x157 (- (+ (* 216 r00 s00 x00) (* 108 r00 x00)) (* 54 r00 s00))))
 (let ((?x164 (- (- (+ ?x157 (* 15 s s)) (* 216 r00 r00 r00 s)) (* 36 r00 r00 s00 s00))))
 (let ((?x171 (- (+ (- ?x164 (* 4 s s s)) (* 108 x x)) (* 432 r00 r00 r00 x00))))
 (let ((?x176 (- (+ (- ?x171 (* 12 s s s00)) (* 108 s00 x)) (* 108 r00 s00 s00))))
 (let ((?x180 (+ ?x176 (* 216 r00 r00 r00 s00) (* 108 s x00) (* 432 r00 r00 r00 x))))
 (let ((?x188 (- (+ (- ?x180 (* 66 s s00)) (* 108 r00 s s00)) (* 108 s00 x00))))
 (let ((?x193 (+ (- ?x188 (* 216 r00 s00 x)) (* 36 r00 r00 s s) (* 16 s00 s00 s00))))
 (let ((?x200 (- (+ (- ?x193 (* 108 s x)) ?x123 (* 51 s00 s00)) (* 108 r00 x))))
 (let ((?x207 (- (+ (- (- (+ ?x200 ?x137) ?x139) ?x143) (* 54 r00 s)) (* 216 x x00))))
 (let ((?x105 (+ (- (* (- 24) r s) (* 54 r00 x00)) (* 36 r r00 x) (* 24 r00 s00) (* 3 s s) (* 54 r x))))
 (let ((?x112 (- (+ (- ?x105 (* 6 s00 x)) (* 4 r00 s s)) (* 2 r00 s00 s00))))
 (let ((?x117 (- (+ (- ?x112 (* 6 s x00)) (* 12 s s00)) (* 2 r00 s s00))))
 (let ((?x121 (+ ?x117 (* 6 s00 x00) (* 2 r s s) (* 6 s x))))
 (let ((?x129 (- (- (- ?x121 (* 4 r s00 s00)) ?x123) (* 36 r00 r00 x00))))
 (let ((?x134 (- (+ (- ?x129 (* 15 s00 s00)) (* 2 r s s00)) (* 36 r r00 x00))))
 (let ((?x142 (- (+ (- (+ ?x134 (* 54 r00 x)) ?x137) ?x139) (* 54 r x00))))
 (let ((?x149 (+ (- (+ ?x142 ?x143 (* 24 r s00)) (* 24 r00 s)) (* 36 r00 r00 x))))
 (let ((?x44 (* 3 s00)))
 (let ((?x74 (+ (- (* (- 9) r s) (* 18 r00 x00)) (* 9 r00 s00) (* 2 s s) (* 18 r x) (* 6 r r00 s))))
 (let ((?x80 (+ (- (- ?x74 (* 6 r00 r00 s)) (* 4 s00 s00)) (* 18 r00 x))))
 (let ((?x85 (- (+ (- ?x80 ?x44) (* 6 r00 r00 s00)) (* 18 r x00))))
 (let ((?x91 (- (+ ?x85 ?x47 (* 9 r s00) (* 2 s s00)) (* 9 r00 s))))
 (let ((?x56 (* 6 x)))
 (let ((?x43 (* 3 r)))
 (let ((?x46 (- (- (+ (* (- 2) r s) (* 12 r r00 r00)) ?x43) ?x44)))
 (let ((?x55 (+ (- (+ ?x46 ?x47 ?x48) (* 4 r s00)) (* 6 r00 s00))))
 (let (($x36 (= (- (+ (- s00 s) (* 3 r r)) (* 3 r00 r00)) 0)))
 (let (($x228 (and $x36 (= (- (+ (- ?x55 ?x56) ?x59) (* 12 r00 r00 r00)) 0) (= (- ?x91 (* 6 r r00 s00)) 0) (= ?x149 0) (= (+ ?x207 (* 108 x00 x00)) 0) (or (not (= ?x224 0))))))
 (rewrite (= $x228 $x1415)))))))))))))))))))))))))))))))))))))))))))))))))))))))))))))))))))))))))))))))))))))))))
 ))
 (let ((@x230 (asserted $x229)))
 (let ((@x394 (mp (mp @x230 (quant-intro (proof-bind ?x940) (= $x229 $x695)) $x695) (rewrite (= $x695 $x695)) $x695)))
 (let ((@x1194 (mp (mp @x394 (quant-intro (proof-bind ?x416) (= $x695 $x1292)) $x1292) (quant-intro (proof-bind ?x1231) (= $x1292 $x1230)) $x1230)))
 (let ((@x269 (mp (mp~ @x1194 (sk (~ $x1230 $x1043)) $x1043) (rewrite (= $x1043 $x237)) $x237)))
 (let ((@x1392 (and-elim @x269 $x1280)))
 (let ((@x1357 (unit-resolution ((_ th-lemma arith triangle-eq) (or (not $x1280) $x1032)) @x1392 $x1032)))
 (let (($x1046 (>= ?x627 0)))
 (let ((@x1049 (unit-resolution ((_ th-lemma arith triangle-eq) (or (not $x1280) $x1046)) @x1392 $x1046)))
 (let (($x870 (not (<= ?x236 0))))
 (let (($x1221 (>= ?x236 0)))
 (let ((@x623 (unit-resolution ((_ th-lemma arith triangle-eq) (or $x238 $x870 (not $x1221))) (and-elim @x269 $x233) (or $x870 (not $x1221)))))
 (let ((@x699 (unit-resolution @x623 (lemma ((_ th-lemma arith farkas 1 1 1) (hypothesis (not $x1221)) @x1049 @x1357 false) $x1221) $x870)))
 ((_ th-lemma arith farkas 1 1 1) @x699 @x1049 @x1357 false))))))))))))))))))))))))))))))))))))))))))))))))))))))))))))))))))))))))))))))))))))))))))))))))))))))))))))))))))))))))))

(:added-eqs                 5
 :arith-assert-diseq        1
 :arith-assert-lower        9
 :arith-assert-upper        8
 :arith-conflicts           2
 :arith-eq-adapter          6
 :arith-num-rows            9
 :arith-pseudo-nonlinear    2
 :arith-tableau-max-columns 100
 :arith-tableau-max-rows    9
 :conflicts                 2
 :decisions                 1
 :del-clause                17
 :max-memory                3.93
 :memory                    3.32
 :mk-bool-var               24
 :mk-clause                 19
 :num-allocs                1322089
 :num-checks                1
 :propagations              12
 :rlimit-count              7025
 :time                      0.01
 :total-time                0.02)
